5 100 266
0 82 76
1 96 44 19 26
2 50 5 21 69
3 49 8 6 62
4 13 7 19 71
5 29 89 7 18
6 58 30 12 13
7 84 39 16 54
8 14 24 6 13
9 2 39 16 38
10 3 82 8 50
11 5 10 14 20
12 98 52 21 8
13 84 25 16 12
14 61 59 3 16
15 1 65 22 20
16 88 51 18 73
17 91 2 19 42
18 19 32 1 9
19 93 3 24 49
20 50 93 8 59
21 98 14 12 71
22 5 42 4 40
23 42 9 8 75
24 61 62 24 17
25 9 97 24 63
26 80 55 2 35
27 57 69 20 73
28 23 15 15 2
29 20 70 2 43
30 85 60 14 54
31 98 5 9 64
